458 457 456 455 2 3 4 1 0 5 6 7 8 9 10 11 16 17 18 15 14 13 12 23 22 31 30 32 33 34 35 36 37 38 40 41 39 42 43 44 47 48 49 50 51 52 54 53 55 56 83 84 85 86 82 57 58 59 81 80 79 61 60 63 62 78 77 76 64 75 74 73 72 71 65 66 67 68 70 69 124 125 126 127 128 129 130 132 133 134 135 136 137 138 139 140 141 151 150 149 152 148 147 142 143 144 146 145 158 157 153 156 159 155 154 160 161 162 168 163 167 166 164 165 203 204 202 201 200 199 198 205 206 207 208 209 210 211 212 213 214 215 216 217 223 224 222 221 220 218 219 193 194 195 196 197 184 185 183 182 179 181 180 169 171 170 172 175 176 177 178 187 188 186 192 191 190 226 225 189 227 228 229 230 231 233 232 234 235 236 237 240 239 238 246 247 245 244 243 242 241 301 302 508 507 506 307 303 304 306 305 318 317 319 320 321 297 298 299 300 257 248 249 250 251 252 254 253 255 256 260 261 259 258 262 263 264 265 266 267 271 268 270 269 272 273 274 275 292 291 293 294 296 295 330 331 332 333 334 288 289 290 276 277 278 279 282 281 280 287 286 285 284 283 335 336 337 338 339 340 341 342 343 344 345 346 364 363 362 361 360 359 358 349 348 347 350 351 352 415 416 414 413 353 354 355 357 356 412 411 410 418 417 419 420 421 422 423 424 425 382 426 427 428 429 431 430 432 433 437 438 436 435 434 445 444 443 439 454 440 441 450 449 442 446 448 447 381 380 378 379 393 391 392 390 389 388 387 386 385 383 384 409 404 403 402 401 400 406 405 408 407 399 398 397 394 395 396 371 372 370 369 368 365 367 366 329 328 327 326 325 324 323 322 373 374 375 376 377 315 314 316 313 312 311 310 309 308 505 504 503 502 451 453 452 499 500 501 498 519 518 494 524 525 526 523 522 521 520 517 516 515 514 513 509 510 511 512 527 528 529 530 531 532 533 488 534 535 487 486 489 490 491 492 493 485 484 536 538 540 539 537 483 481 482 475 476 480 479 477 478 548 549 550 551 101 100 102 547 546 545 544 543 541 542 107 174 173 108 109 110 111 112 113 131 114 115 116 117 123 122 121 120 119 118 106 105 104 103 96 95 97 94 89 88 87 90 93 92 91 46 45 555 554 553 98 99 552 556 557 558 559 560 561 562 563 564 565 566 567 29 28 27 26 25 24 21 20 19 568 569 570 474 473 472 471 495 470 469 468 467 466 465 464 496 497 463 462 461 459 460 571 572 573